%%%mzn-stat: initTime=0.016838275
%%%mzn-stat: objective=292
%%%mzn-stat: nodes=50629
%%%mzn-stat: restarts=0
%%%mzn-stat: peakDepth=483
%%%mzn-stat: solveTime=3.113001545
%%%mzn-stat: variables=1555
%%%mzn-stat: propagators=1172
%%%mzn-stat: failures=8836
%%%mzn-stat: propagations=655899
%%%mzn-stat: nogoods=8836
%%%mzn-stat: AverageConflictSize=41.4545043005885
%%%mzn-stat: NumUnitNogoodsLearned=291
%%%mzn-stat: AverageLearnedNogoodLength=55.88909008601177
%%%mzn-stat: AverageBacktrackAmount=0
%%%mzn-stat: AverageLbd=19.299909461294703
%%%mzn-stat-end
maxleg = 292;
succ = array1d(1..50,[27, 19, 6, 44, 25, 47, 8, 49, 22, 15, 34, 48, 7, 17, 24, 9, 43, 39, 1, 40, 28, 2, 38, 36, 18, 16, 35, 10, 37, 41, 50, 45, 20, 29, 11, 33, 12, 13, 46, 32, 26, 31, 21, 5, 4, 30, 23, 42, 14, 3]);
% time elapsed: 4.57 s
----------
==========
% time elapsed: 4.57 s
%%%mzn-stat: initTime=0.016838275
%%%mzn-stat: objective=292
%%%mzn-stat: nodes=50629
%%%mzn-stat: restarts=0
%%%mzn-stat: peakDepth=483
%%%mzn-stat: solveTime=3.113005211
%%%mzn-stat: variables=1555
%%%mzn-stat: propagators=1172
%%%mzn-stat: failures=8836
%%%mzn-stat: propagations=655899
%%%mzn-stat: nogoods=8836
%%%mzn-stat: AverageConflictSize=41.4545043005885
%%%mzn-stat: NumUnitNogoodsLearned=291
%%%mzn-stat: AverageLearnedNogoodLength=55.88909008601177
%%%mzn-stat: AverageBacktrackAmount=0
%%%mzn-stat: AverageLbd=19.299909461294703
%%%mzn-stat-end
